c File: instances/22_0.60_2.col
c
c Description: Random graph of size 22 vertices and P(0.6) of edges between any two vertices.
p col 22 231
e 1 4
e 1 7
e 1 8
e 1 11
e 1 14
e 1 17
e 1 18
e 1 19
e 1 20
e 1 21
e 1 22
e 2 3
e 2 4
e 2 5
e 2 6
e 2 9
e 2 11
e 2 12
e 2 13
e 2 14
e 2 17
e 2 19
e 2 20
e 2 21
e 3 7
e 3 8
e 3 12
e 3 13
e 3 14
e 3 15
e 3 16
e 3 17
e 3 19
e 3 20
e 3 22
e 4 5
e 4 6
e 4 7
e 4 11
e 4 12
e 4 14
e 4 15
e 4 16
e 4 17
e 4 18
e 5 6
e 5 10
e 5 11
e 5 14
e 5 16
e 5 18
e 5 22
e 6 8
e 6 10
e 6 11
e 6 12
e 6 13
e 6 14
e 6 15
e 6 16
e 6 17
e 6 18
e 6 20
e 6 21
e 7 8
e 7 9
e 7 10
e 7 13
e 7 14
e 7 16
e 7 19
e 7 20
e 7 22
e 8 9
e 8 10
e 8 13
e 8 14
e 8 15
e 8 16
e 8 17
e 8 18
e 8 21
e 9 10
e 9 12
e 9 13
e 9 14
e 9 17
e 9 18
e 9 19
e 9 20
e 9 21
e 9 22
e 10 11
e 10 13
e 10 14
e 10 17
e 10 18
e 10 21
e 11 13
e 11 14
e 11 17
e 11 18
e 11 19
e 11 22
e 12 15
e 12 16
e 12 17
e 12 18
e 12 19
e 12 20
e 12 22
e 13 14
e 13 16
e 13 19
e 14 16
e 14 17
e 14 20
e 15 16
e 15 17
e 15 18
e 15 20
e 15 22
e 16 17
e 16 18
e 16 19
e 16 20
e 16 21
e 16 22
e 17 21
e 17 22
e 18 19
e 18 20
e 18 21
e 19 20
e 19 21
e 19 22
e 20 21
e 20 22